





























































































11 53 50 48 
33 8 44 34 
42 52 71 28 
20 69 0 51 
21 39 70 7 
54 19 9 56 
10 60 65 76 
63 40 4 75 
55 3 58 47 
61 74 45 72 
13 12 67 
22 37 41 46 
36 32 31 30 
15 64 57 14 
5 23 1 29 
62 66 49 
26 38 17 
25 68 59 2 
73 
18 35 6 
43 27 16 24 
